NAME          
ROWS
 N  OBJ
 L  c1
 L  c2
 L  c3
COLUMNS
    MARKER    'MARKER'                 'INTORG'
    x[1]      c1        970
    x[1]      c2        187
    x[1]      c3        5
    x[1]      OBJ       -368
    x[2]      c1        670
    x[2]      c2        462
    x[2]      c3        192
    x[2]      OBJ       -68
    x[3]      c1        486
    x[3]      c2        59
    x[3]      c3        75
    x[3]      OBJ       -967
    x[4]      c1        224
    x[4]      c2        257
    x[4]      c3        243
    x[4]      OBJ       -774
    x[5]      c1        171
    x[5]      c2        370
    x[5]      c3        605
    x[5]      OBJ       -526
    x[6]      c1        348
    x[6]      c2        338
    x[6]      c3        955
    x[6]      OBJ       -44
    x[7]      c1        23
    x[7]      c2        480
    x[7]      c3        902
    x[7]      OBJ       -693
    x[8]      c1        701
    x[8]      c2        416
    x[8]      c3        555
    x[8]      OBJ       -715
    x[9]      c1        499
    x[9]      c2        798
    x[9]      c3        12
    x[9]      OBJ       -670
    x[10]     c1        92
    x[10]     c2        860
    x[10]     c3        116
    x[10]     OBJ       -247
RHS
    rhs       c1        2092
    rhs       c2        2114
    rhs       c3        1830
RANGES
BOUNDS
 LO bounds    x[1]      0
 PL bounds    x[1]
 LO bounds    x[2]      0
 PL bounds    x[2]
 LO bounds    x[3]      0
 PL bounds    x[3]
 LO bounds    x[4]      0
 PL bounds    x[4]
 LO bounds    x[5]      0
 PL bounds    x[5]
 LO bounds    x[6]      0
 PL bounds    x[6]
 LO bounds    x[7]      0
 PL bounds    x[7]
 LO bounds    x[8]      0
 PL bounds    x[8]
 LO bounds    x[9]      0
 PL bounds    x[9]
 LO bounds    x[10]     0
 PL bounds    x[10]
ENDATA
